Problem:    barcos_guardacosta
Rows:       15
Columns:    40 (40 integer, 40 binary)
Non-zeros:  120
Status:     INTEGER OPTIMAL
Objective:  Z = 890 (MINimum)

   No.   Row name        Activity     Lower bound   Upper bound
------ ------------    ------------- ------------- -------------
     1 Z                         890                             
     2 cadaDistritoUnoDeLosBarcos[1]
                                   1             1             = 
     3 cadaDistritoUnoDeLosBarcos[2]
                                   1             1             = 
     4 cadaDistritoUnoDeLosBarcos[3]
                                   1             1             = 
     5 cadaDistritoUnoDeLosBarcos[4]
                                   1             1             = 
     6 cadaDistritoUnoDeLosBarcos[5]
                                   1             1             = 
     7 cadaDistritoUnoDeLosBarcos[6]
                                   1             1             = 
     8 cadaDistritoUnoDeLosBarcos[7]
                                   1             1             = 
     9 cadaDistritoUnoDeLosBarcos[8]
                                   1             1             = 
    10 cadaDistritoUnoDeLosBarcos[9]
                                   1             1             = 
    11 cadaDistritoUnoDeLosBarcos[10]
                                   1             1             = 
    12 tiempoMaxdeCadaBarco[1]
                                  49                          50 
    13 tiempoMaxdeCadaBarco[2]
                                  47                          50 
    14 tiempoMaxdeCadaBarco[3]
                                  37                          50 
    15 tiempoMaxdeCadaBarco[4]
                                  46                          50 

   No. Column name       Activity     Lower bound   Upper bound
------ ------------    ------------- ------------- -------------
     1 X[1,1]       *              0             0             1 
     2 X[1,2]       *              0             0             1 
     3 X[1,3]       *              0             0             1 
     4 X[1,4]       *              0             0             1 
     5 X[1,5]       *              1             0             1 
     6 X[1,6]       *              1             0             1 
     7 X[1,7]       *              1             0             1 
     8 X[1,8]       *              0             0             1 
     9 X[1,9]       *              0             0             1 
    10 X[1,10]      *              0             0             1 
    11 X[2,1]       *              1             0             1 
    12 X[2,2]       *              0             0             1 
    13 X[2,3]       *              0             0             1 
    14 X[2,4]       *              1             0             1 
    15 X[2,5]       *              0             0             1 
    16 X[2,6]       *              0             0             1 
    17 X[2,7]       *              0             0             1 
    18 X[2,8]       *              0             0             1 
    19 X[2,9]       *              1             0             1 
    20 X[2,10]      *              0             0             1 
    21 X[3,1]       *              0             0             1 
    22 X[3,2]       *              1             0             1 
    23 X[3,3]       *              0             0             1 
    24 X[3,4]       *              0             0             1 
    25 X[3,5]       *              0             0             1 
    26 X[3,6]       *              0             0             1 
    27 X[3,7]       *              0             0             1 
    28 X[3,8]       *              1             0             1 
    29 X[3,9]       *              0             0             1 
    30 X[3,10]      *              0             0             1 
    31 X[4,1]       *              0             0             1 
    32 X[4,2]       *              0             0             1 
    33 X[4,3]       *              1             0             1 
    34 X[4,4]       *              0             0             1 
    35 X[4,5]       *              0             0             1 
    36 X[4,6]       *              0             0             1 
    37 X[4,7]       *              0             0             1 
    38 X[4,8]       *              0             0             1 
    39 X[4,9]       *              0             0             1 
    40 X[4,10]      *              1             0             1 

Integer feasibility conditions:

KKT.PE: max.abs.err = 0.00e+00 on row 0
        max.rel.err = 0.00e+00 on row 0
        High quality

KKT.PB: max.abs.err = 0.00e+00 on row 0
        max.rel.err = 0.00e+00 on row 0
        High quality

End of output
